(set-logic ALL)
(declare-const GEN1 Int)
(declare-const GEN2 Real)
(declare-const GEN3 Int)
(declare-const GEN4 Int)
(declare-const GEN5 Int)
(declare-const GEN6 Int)
(declare-const GEN7 Real)
(declare-const GEN8 Real)
(declare-const BAV9 Bool)
(declare-const BAV10 Bool)
(declare-const BAV11 Bool)
(declare-const BAV12 Bool)
(declare-const BAV13 Bool)
(declare-const BAV14 Bool)
(declare-const BAV15 Bool)
(declare-fun f (Int) Int)
(declare-fun g (Int) Real)
(declare-fun h (Real) Int)
(assert (forall ((x Int)) (or (= (f x) (h (to_real x))) (= (f x) (to_int (g x))))))
(assert (not (= (f GEN1) (h GEN2))))
(assert (not (= (f GEN3) (to_int (g GEN4)))))
(assert (= (f GEN5) (g GEN6)))
(assert (= (h GEN7) GEN8))
(assert (= BAV9 (forall ((x Int)) (or (= (f x) (h (to_real x))) (= (f x) (to_int (g x)))))))
(assert (= BAV10 (forall ((x Int)) (= (f x) (h (to_real x))))))
(assert (= BAV11 (forall ((x Int)) (= (f x) (to_int (g x))))))
(assert (= BAV12 (= (f GEN1) (h GEN2))))
(assert (= BAV13 (= (f GEN3) (to_int (g GEN4)))))
(assert (= BAV14 (= (f GEN5) (g GEN6))))
(assert (= BAV15 (= (h GEN7) GEN8)))
(check-sat)